 &input
        title='O',
        zed=8.0,
        rel=0,
        beta=0.5,
        iswitch=2,
        dft='PBE',
        prefix='./PAW2/PAW2'
        nld=0
 /
4
1S  1  0  2.0  1
2S  2  0  2.0  1
2P  2  1  4.0  1
3D  3  2 -1.0  1
 &test
  file_pseudo='./PAW2.PAW'
  nconf=2,
 / 
2
2S  1  0  2.00  0.00  1.40  1.60  1
2P  2  1  4.00  0.00  1.40  1.60  1
2
2S  1  0  0  0.00  1.40  1.60  1
2P  2  1  4.00  0.00  1.40  1.60  1
